40
1 0 7
2 0 5
2 1 4
3 0 17
3 1 6
3 2 12
4 0 16
4 1 14
4 2 20
4 3 6
5 0 1
5 1 18
5 2 3
5 3 6
5 4 11
6 0 6
6 1 17
6 2 15
6 3 13
6 4 8
6 5 5
7 0 14
7 1 19
7 2 19
7 3 3
7 4 13
7 5 7
7 6 10
8 0 20
8 1 16
8 2 8
8 3 4
8 4 5
8 5 8
8 6 1
8 7 17
9 0 16
9 1 2
9 2 6
9 3 11
9 4 1
9 5 14
9 6 12
9 7 12
9 8 12
10 0 19
10 1 11
10 2 19
10 3 19
10 4 6
10 5 14
10 6 13
10 7 12
10 8 17
10 9 20
11 0 6
11 1 15
11 2 1
11 3 14
11 4 5
11 5 3
11 6 9
11 7 8
11 8 15
11 9 19
11 10 12
12 0 16
12 1 15
12 2 6
12 3 3
12 4 17
12 5 3
12 6 4
12 7 11
12 8 4
12 9 2
12 10 12
12 11 17
13 0 17
13 1 3
13 2 6
13 3 13
13 4 20
13 5 6
13 6 12
13 7 5
13 8 5
13 9 11
13 10 16
13 11 9
13 12 7
14 0 4
14 1 15
14 2 3
14 3 12
14 4 2
14 5 13
14 6 18
14 7 16
14 8 3
14 9 19
14 10 6
14 11 17
14 12 16
14 13 5
15 0 8
15 1 4
15 2 6
15 3 2
15 4 4
15 5 9
15 6 13
15 7 8
15 8 18
15 9 1
15 10 12
15 11 17
15 12 16
15 13 18
15 14 13
16 0 5
16 1 8
16 2 19
16 3 7
16 4 5
16 5 16
16 6 6
16 7 9
16 8 7
16 9 4
16 10 10
16 11 12
16 12 4
16 13 16
16 14 3
16 15 5
17 0 2
17 1 8
17 2 15
17 3 4
17 4 6
17 5 10
17 6 17
17 7 5
17 8 10
17 9 4
17 10 12
17 11 3
17 12 2
17 13 2
17 14 19
17 15 7
17 16 18
18 0 9
18 1 6
18 2 10
18 3 19
18 4 8
18 5 18
18 6 12
18 7 5
18 8 7
18 9 5
18 10 14
18 11 11
18 12 15
18 13 10
18 14 14
18 15 9
18 16 18
18 17 7
19 0 1
19 1 5
19 2 9
19 3 14
19 4 1
19 5 17
19 6 12
19 7 11
19 8 4
19 9 17
19 10 15
19 11 10
19 12 12
19 13 4
19 14 3
19 15 16
19 16 3
19 17 1
19 18 12
20 0 19
20 1 6
20 2 15
20 3 5
20 4 14
20 5 2
20 6 19
20 7 4
20 8 2
20 9 19
20 10 10
20 11 7
20 12 13
20 13 10
20 14 9
20 15 11
20 16 7
20 17 15
20 18 15
20 19 10
21 0 9
21 1 14
21 2 1
21 3 8
21 4 15
21 5 9
21 6 19
21 7 7
21 8 9
21 9 20
21 10 18
21 11 11
21 12 6
21 13 6
21 14 16
21 15 2
21 16 10
21 17 16
21 18 13
21 19 8
21 20 13
22 0 16
22 1 8
22 2 8
22 3 19
22 4 20
22 5 15
22 6 15
22 7 14
22 8 9
22 9 16
22 10 9
22 11 6
22 12 9
22 13 15
22 14 18
22 15 7
22 16 11
22 17 14
22 18 4
22 19 2
22 20 16
22 21 20
23 0 4
23 1 9
23 2 11
23 3 14
23 4 11
23 5 2
23 6 4
23 7 19
23 8 19
23 9 12
23 10 18
23 11 3
23 12 5
23 13 19
23 14 10
23 15 12
23 16 19
23 17 12
23 18 4
23 19 17
23 20 12
23 21 4
23 22 6
24 0 13
24 1 10
24 2 7
24 3 19
24 4 15
24 5 9
24 6 8
24 7 14
24 8 8
24 9 10
24 10 7
24 11 7
24 12 15
24 13 15
24 14 7
24 15 8
24 16 11
24 17 16
24 18 3
24 19 1
24 20 2
24 21 15
24 22 9
24 23 20
25 0 20
25 1 4
25 2 15
25 3 19
25 4 12
25 5 16
25 6 16
25 7 7
25 8 20
25 9 2
25 10 12
25 11 9
25 12 9
25 13 11
25 14 9
25 15 5
25 16 10
25 17 8
25 18 1
25 19 10
25 20 18
25 21 13
25 22 20
25 23 6
25 24 8
26 0 14
26 1 10
26 2 7
26 3 14
26 4 10
26 5 17
26 6 10
26 7 5
26 8 9
26 9 4
26 10 12
26 11 4
26 12 12
26 13 4
26 14 20
26 15 19
26 16 4
26 17 11
26 18 17
26 19 3
26 20 14
26 21 3
26 22 15
26 23 12
26 24 4
26 25 7
27 0 10
27 1 8
27 2 2
27 3 13
27 4 12
27 5 9
27 6 1
27 7 19
27 8 9
27 9 1
27 10 18
27 11 19
27 12 7
27 13 5
27 14 4
27 15 1
27 16 9
27 17 18
27 18 13
27 19 11
27 20 4
27 21 10
27 22 4
27 23 18
27 24 16
27 25 15
27 26 4
28 0 7
28 1 5
28 2 17
28 3 8
28 4 6
28 5 13
28 6 9
28 7 19
28 8 2
28 9 4
28 10 20
28 11 4
28 12 6
28 13 9
28 14 14
28 15 13
28 16 11
28 17 2
28 18 8
28 19 7
28 20 2
28 21 2
28 22 15
28 23 11
28 24 12
28 25 10
28 26 17
28 27 10
29 0 2
29 1 4
29 2 6
29 3 11
29 4 19
29 5 15
29 6 7
29 7 7
29 8 2
29 9 4
29 10 16
29 11 6
29 12 4
29 13 4
29 14 15
29 15 14
29 16 9
29 17 7
29 18 4
29 19 11
29 20 2
29 21 18
29 22 5
29 23 8
29 24 11
29 25 16
29 26 4
29 27 8
29 28 9
30 0 7
30 1 8
30 2 14
30 3 6
30 4 8
30 5 14
30 6 9
30 7 2
30 8 7
30 9 8
30 10 17
30 11 13
30 12 11
30 13 13
30 14 11
30 15 9
30 16 2
30 17 1
30 18 6
30 19 6
30 20 19
30 21 14
30 22 17
30 23 7
30 24 13
30 25 2
30 26 14
30 27 14
30 28 7
30 29 18
31 0 10
31 1 3
31 2 2
31 3 2
31 4 15
31 5 15
31 6 1
31 7 8
31 8 4
31 9 8
31 10 8
31 11 16
31 12 15
31 13 3
31 14 7
31 15 18
31 16 13
31 17 14
31 18 20
31 19 19
31 20 2
31 21 3
31 22 5
31 23 17
31 24 6
31 25 2
31 26 1
31 27 14
31 28 10
31 29 7
31 30 12
32 0 2
32 1 19
32 2 9
32 3 7
32 4 6
32 5 20
32 6 12
32 7 12
32 8 20
32 9 13
32 10 17
32 11 15
32 12 11
32 13 16
32 14 16
32 15 15
32 16 3
32 17 5
32 18 15
32 19 13
32 20 10
32 21 16
32 22 12
32 23 7
32 24 2
32 25 8
32 26 13
32 27 15
32 28 15
32 29 4
32 30 15
32 31 6
33 0 13
33 1 10
33 2 7
33 3 17
33 4 6
33 5 12
33 6 7
33 7 5
33 8 19
33 9 9
33 10 8
33 11 15
33 12 12
33 13 1
33 14 11
33 15 10
33 16 5
33 17 15
33 18 18
33 19 14
33 20 13
33 21 18
33 22 18
33 23 17
33 24 14
33 25 12
33 26 14
33 27 14
33 28 17
33 29 9
33 30 2
33 31 8
33 32 6
34 0 17
34 1 16
34 2 17
34 3 1
34 4 6
34 5 16
34 6 4
34 7 1
34 8 4
34 9 12
34 10 11
34 11 11
34 12 16
34 13 13
34 14 1
34 15 19
34 16 13
34 17 19
34 18 17
34 19 17
34 20 13
34 21 19
34 22 17
34 23 4
34 24 3
34 25 16
34 26 19
34 27 19
34 28 6
34 29 7
34 30 3
34 31 11
34 32 13
34 33 7
35 0 6
35 1 18
35 2 1
35 3 12
35 4 16
35 5 9
35 6 14
35 7 5
35 8 3
35 9 20
35 10 17
35 11 4
35 12 16
35 13 9
35 14 9
35 15 9
35 16 18
35 17 12
35 18 9
35 19 15
35 20 2
35 21 20
35 22 15
35 23 5
35 24 5
35 25 18
35 26 7
35 27 13
35 28 8
35 29 8
35 30 17
35 31 17
35 32 16
35 33 20
35 34 13
36 0 14
36 1 11
36 2 18
36 3 16
36 4 2
36 5 12
36 6 14
36 7 15
36 8 2
36 9 4
36 10 5
36 11 1
36 12 12
36 13 2
36 14 5
36 15 17
36 16 1
36 17 7
36 18 5
36 19 5
36 20 9
36 21 16
36 22 9
36 23 20
36 24 3
36 25 12
36 26 15
36 27 18
36 28 1
36 29 18
36 30 5
36 31 7
36 32 7
36 33 10
36 34 14
36 35 18
37 0 9
37 1 4
37 2 13
37 3 15
37 4 9
37 5 20
37 6 13
37 7 16
37 8 17
37 9 2
37 10 11
37 11 14
37 12 1
37 13 3
37 14 5
37 15 1
37 16 15
37 17 13
37 18 12
37 19 10
37 20 12
37 21 18
37 22 4
37 23 11
37 24 6
37 25 3
37 26 14
37 27 15
37 28 10
37 29 6
37 30 5
37 31 1
37 32 18
37 33 11
37 34 5
37 35 2
37 36 6
38 0 3
38 1 11
38 2 11
38 3 12
38 4 4
38 5 9
38 6 8
38 7 3
38 8 10
38 9 8
38 10 4
38 11 2
38 12 17
38 13 7
38 14 4
38 15 20
38 16 10
38 17 16
38 18 7
38 19 1
38 20 9
38 21 10
38 22 1
38 23 10
38 24 5
38 25 13
38 26 16
38 27 19
38 28 16
38 29 13
38 30 4
38 31 7
38 32 7
38 33 20
38 34 2
38 35 14
38 36 13
38 37 10
39 0 20
39 1 8
39 2 8
39 3 11
39 4 11
39 5 14
39 6 9
39 7 9
39 8 9
39 9 7
39 10 16
39 11 10
39 12 15
39 13 17
39 14 1
39 15 4
39 16 5
39 17 16
39 18 14
39 19 9
39 20 16
39 21 11
39 22 16
39 23 10
39 24 13
39 25 10
39 26 18
39 27 15
39 28 20
39 29 7
39 30 9
39 31 15
39 32 9
39 33 8
39 34 13
39 35 16
39 36 18
39 37 10
39 38 16
